NAME : rnd12_20.tsp
TYPE : TSP
DIMENSION : 20
EDGE_WEIGHT_TYPE : EUC_2D
NODE_COORD_SECTION
1 769 922
2 80 453
3 812 451
4 911 507
5 518 416
6 757 933
7 657 528
8 263 910
9 770 344
10 4 11
11 263 346
12 569 474
13 0 812
14 330 143
15 767 22
16 703 95
17 233 545
18 57 795
19 485 950
20 697 280
